100
150
100
99
96
94
93
92
92
91
91
91
89
88
86
86
86
85
84
84
84
81
81
80
79
79
78
77
77
77
77
73
71
69
67
66
65
65
64
64
64
62
60
57
57
56
56
56
56
53
52
51
51
50
50
48
47
46
45
44
43
42
41
41
40
40
39
39
38
37
36
36
36
34
33
31
31
29
29
26
25
22
22
22
20
17
11
11
10
9
7
7
7
7
6
5
3
2
2
1
1
1
